NAME          
ROWS
 N  OBJ
 L  c1
COLUMNS
    MARKER    'MARKER'                 'INTORG'
    x[1]      c1        257
    x[1]      OBJ       -241
    x[2]      c1        754
    x[2]      OBJ       -248
    x[3]      c1        543
    x[3]      OBJ       -93
    x[4]      c1        724
    x[4]      OBJ       -458
    x[5]      c1        800
    x[5]      OBJ       -455
    x[6]      c1        237
    x[6]      OBJ       -585
    x[7]      c1        988
    x[7]      OBJ       -911
    x[8]      c1        426
    x[8]      OBJ       -129
    x[9]      c1        83
    x[9]      OBJ       -415
    x[10]     c1        445
    x[10]     OBJ       -574
    x[11]     c1        691
    x[11]     OBJ       -558
    x[12]     c1        88
    x[12]     OBJ       -733
    x[13]     c1        432
    x[13]     OBJ       -473
    x[14]     c1        261
    x[14]     OBJ       -816
    x[15]     c1        237
    x[15]     OBJ       -879
    x[16]     c1        159
    x[16]     OBJ       -72
    x[17]     c1        227
    x[17]     OBJ       -46
    x[18]     c1        450
    x[18]     OBJ       -153
    x[19]     c1        927
    x[19]     OBJ       -825
    x[20]     c1        466
    x[20]     OBJ       -11
    x[21]     c1        128
    x[21]     OBJ       -629
    x[22]     c1        317
    x[22]     OBJ       -685
    x[23]     c1        789
    x[23]     OBJ       -62
    x[24]     c1        1
    x[24]     OBJ       -178
    x[25]     c1        194
    x[25]     OBJ       -556
    x[26]     c1        588
    x[26]     OBJ       -233
    x[27]     c1        93
    x[27]     OBJ       -418
    x[28]     c1        69
    x[28]     OBJ       -523
    x[29]     c1        881
    x[29]     OBJ       -907
    x[30]     c1        98
    x[30]     OBJ       -699
RHS
    rhs       c1        6176
RANGES
BOUNDS
 BV bounds    x[1]
 BV bounds    x[2]
 BV bounds    x[3]
 BV bounds    x[4]
 BV bounds    x[5]
 BV bounds    x[6]
 BV bounds    x[7]
 BV bounds    x[8]
 BV bounds    x[9]
 BV bounds    x[10]
 BV bounds    x[11]
 BV bounds    x[12]
 BV bounds    x[13]
 BV bounds    x[14]
 BV bounds    x[15]
 BV bounds    x[16]
 BV bounds    x[17]
 BV bounds    x[18]
 BV bounds    x[19]
 BV bounds    x[20]
 BV bounds    x[21]
 BV bounds    x[22]
 BV bounds    x[23]
 BV bounds    x[24]
 BV bounds    x[25]
 BV bounds    x[26]
 BV bounds    x[27]
 BV bounds    x[28]
 BV bounds    x[29]
 BV bounds    x[30]
ENDATA
